results/res_prop_muc/res_Cimatti_mathsat_cores/QF_IDL/inf-bakery-mutex-3.smt.smt2.res
unsat
( c108
  c11
  c114
  c12
  c126
  c130
  c131
  c133
  c153
  c156
  c159
  c162
  c168
  c171
  c180
  c183
  c186
  c187
  c188
  c189
  c19
  c197
  c203
  c215
  c219
  c220
  c222
  c242
  c248
  c25
  c251
  c257
  c272
  c273
  c275
  c276
  c278
  c284
  c287
  c291
  c293
  c295
  c296
  c304
  c305
  c37
  c41
  c43
  c44
  c67
  c76
  c79
  c8
  c9
  c92
  c94
  c97
  c99 )
